n=4;
row=8;
column=8;
Board=[|2,2,0,1,4,0,0,1|0,1,4,3,0,1,2,0|1,0,3,4,0,4,0,0|3,0,0,2,0,0,0,0|0,0,0,0,0,1,4,1|4,0,2,0,0,0,0,3|1,0,0,0,3,0,3,2|3,0,0,4,0,0,1,0|];
Region=[|1,2,2,2,2,3,4,5|1,6,6,6,6,3,4,5|1,7,8,9,10,3,4,5|1,7,8,9,10,3,4,5|11,7,8,9,10,12,13,14|11,7,8,9,10,12,13,14|11,15,15,15,15,12,13,14|11,16,16,16,16,12,13,14|];
